rsa_demo_benchmark_output/128/certs/0009.assert.smt2
; benchmark generated from python API
(set-info :status unknown)
(declare-fun p () Int)
(declare-fun q () Int)
(declare-fun n () Int)
(assert
 (= p 14628100810059905551))
(assert
 (= q 15275462011323622219))
(assert
 (= n 223450998221882392322455807218345037669))
(assert
 (= (* p q) n))
(assert
 (> p 1))
(assert
 (> q 1))
(check-sat)
